     60      2     44    300     15
     36     36
     25     27      3     43     34      0     28     38     41     19     29     33     48     54     31      3     15     37     24     11     50     21     38     34     36     13     35      2     32     39      2     59     30     24     25     58      0     57     35     51      0     59     22     18     34     45      8     58     10     43     39     21     27     28     14     36      9     15      5     15     10     48      0     22     45     16     36     49     25     38     58     13     54     55     47      4     55     20     40      9     42      5     17     15     10     14     13      7      3     15     59     24     30     11     41     44     52     41     42     58     46     43     38     32     45     52     26     17     51     53     27     29     42      1     25     46      1      7     44     17     24     40      5     26      6     44     14     37      4      8     12     32     16     12     10     24      8     57     28     51      3     53     26     30     57     15     18     45     21     58     55     21     22     45     39      4     24     22     55     40     33     32     50     46     41      6     34     10     21      8     55     14     45      6     55      1     39     10     32     21     20     30     25     57     26     33     11     57     27      1     54     36     21     51     49     53     21     38     13      0     57      9     49     25     21     17     19      7     13      9     54     12      2     16     14     44      2     28      3     46     42     11     11     17     35      0     37     19      5     32     51     56     43     27     19     46      8     19     20     50     48      0      5     36     26     27      0     45     25      1     56     44     24      7      6     20     40     54     59      2     48     32     23     39     51     25     17     19     45     14     49     48     34     23     27     29      9     22      1     36     56     39     44      9     39     48     42     46     54     22     14     43     21      7     15     57     26      1     58     52     56      7      2      9     31     34     37     31     57     49     20     55     28      5     58     21      0      3     33     14     55     49     58     42     26     41      0     12     13     53
      4     76     -8     75     60     -5     68     -8     19     26      5     14     -9     -6     34      7     19     62      3     11      6     -9     79     30     63     31      1     31     62    -16     53     18     38     35     16     17     30     28     54     50     -6    -13    -12     56     45     34    -14     20     21     76     57     65     69     74     43      3    -18    -14     65     42
     12     10     11	    305    203     13     19      7      0      0      0     -7      0      0      0      0      0      0      0      0    -31      0      0      0      0      0      0      0      0      0      0      0      0      0      0    177      0     15     62      0      0      0      0      0      0      0    -14      0    129      0      0     36      0      0    -55      0      0    201      0      0      0      0      0     61     -8     84      0      0
     11     10     12	    123     82     32     32      3      0      0      0     10      0      0      0      0      0      0      0      0      0      0      0      0      0     56      0      0      0      0      0      0      0      0     69      0      0      0     91      0     -5      0      0      0      0    -20      0      0      0      0      0      0      0      0      0     21      0     95      0      0      0      0     88      0      0     18      0      0
      9     15     10	    458    114     27     43      2      0      0      0    -15    185      0      0      0      0      0     85      0      0      0      0      0      0      0      0      0      0      0     12      0    -25     71      0      0      0    115      0    -13      0      0      0      0     87      0     37      0      0      0      0     74      0     85    234      0      0      0      0      0      0      0      0      0      0      0      0      0
     10     15     13	    104     60     23     26     10     -7     10    -15      0      0      0     66      0     -3      0      0      0     59      0      0      0      0      0      0      0      0      0      0     37      0      0      0      0      0      0      0      0      0     54     35      0      0      0      0      0      0     43     50      0      0      0      0      0     78      0     -6      0      0      0      0      0      0      0     68      0
      8     14     11	    320    208     27     31      7      0      0    185      0      0      0      0    -11      0      0     23      0      0      0      0      0      0      0      0      0     24      0      0      0      0      0      0      0      0      0     34      0      0      0      0     44    146      0      0    -54      0    145      0      0      0      0      0      0      0      0    193      0      0      0      0      0      0      0      0     58
      7     12     12	    383    252     39     44      6      0      0      0      0      0      0     21    172      0      0     28      0    188    132      0      0      0      0      0      0      0      0      0      0      0      0      0      0    131    170      0    147      0      0      2      0      0      0      0      0      0     68      0     56      0      0      0      0      0     91      0     89      0      0      0      0      0      0     66      0
     11     12     14	    122     55     23     27     10      0      0      0     66      0     21      0      0      0      0      0      0      0      0      0      0      0      0      9      0      0      0      0     30      0      0      0      0    -11     58     50      0      0      0      0      0      0      0     71      0     53      0      0      0      0      0      0      1      7      0      0      0      0      0      0      0      0      0      0      0
     11     11     11	    474     64     40     42      8      0      0      0      0    -11    172      0      0    318      0    -47      0      0      0      0    -52      0      0      0      0      0      0      0      0      0    114    -10    251    157      0      0      0      0      0      0      0      0    -72      0      0      0      0      0     34      0      0      0    304      0    205      0      0      0      0      0      0      0      0      0      0
      9     10     15	    423    104     38     39      3      0      0      0     -3      0      0      0    318      0    -10      0      0      0      0      0      0      0      0      0      0      0      0      0      0      0    123      0      0      0      0      0      0    106      0      0     38    174      0      0      0     67    -12      0      0      0      0      0      0      0      0    265      0      0    114      0      0     18    -16      0      0
      6     11     12	    206    128     13     13      9      0      0      0      0      0      0      0      0    -10      0      0     62      0    139      0     29     67      0      0      0      0     74      0      0      0      0      0      0      0      0      0      0      0      0      0      0      0    154      0      0      0      0      0      0      0      0      0      0      0      0      9      0      0      0      0      0      0     91      0      0
     10     14     10	    240     65     26     37      4      0      0     85      0     23     28      0    -47      0      0      0      0      0      0      0      0    179      0     65      0      0     10      0      0      0    189      0      0    178      0      0      0      0      0      0     49     72      0      0      0      0    119      0      0      0      0      0      0      0      0      0      0    110      0      0      0      0      0      0      0
      8     11     15	    347    187     11     33      4      0      0      0      0      0      0      0      0      0     62      0      0      0      0    125      0      0      0      0    252      0      0      0     58      0    216      0      0    111      0      0      0      0      0     49      0      0      0      0      0      0      0      0      0      0      0      0      0      0      0      0      0      0      0      0     62    184      0      0     75
     10     14     10	    482    114     23     40      5    -31      0      0     59      0    188      0      0      0      0      0      0      0      0      0      0      0      0    278      0      0      0      0      0      0      8      0      0      0      0    -61      0      0      0     84      0      0     64      0     24      0      0      0      0      0      0      0      0      0      0      0      0    -53     54     80      0      0      0      0      0
     10     12     15	    199     55     24     27      8      0      0      0      0      0    132      0      0      0    139      0      0      0      0      0     23      0     38      0      0    142      0      0      0      0      0     39      0    -14      0     27      0      0      0      0      0      0      0      0      0     76      0     88      0      0      0     15      0      0      0      0      0      0      0      0      0     -2     54      0     49
     12     14     11	    313     96     23     40      6      0      0      0      0      0      0      0      0      0      0      0    125      0      0      0      0      0      0      0    235      0      0      0      0      7      0      0      0      0      0      0      0      0      0      0      0    176      0      0      0      0      0    195      0      0      0      0      0    246    198    -17      0      0      0      0      0      0      0      0      0
      8     10     12	    325    142     23     24      1      0      0      0      0      0      0      0    -52      0     29      0      0      0     23      0      0      0      0      0      0      0      0      0      0      0      0      0      0      0      0      0      0      0      0     19      0    252      0    134    231      0      0      0      0      0      0      0      0      0      0      0    222     29      0    214      0      0      0      0      0
      7     13     12	    398    211     23     29      5      0      0      0      0      0      0      0      0      0     67    179      0      0      0      0      0      0      0    292      0      0     74      0      0    -26      0     24      0    196      0      0      0      0      0      0      0      0      0      0      0      0     65      0      0      0    135    140      0      0      0      0      0      0      0      0     64      0      0      0      0
      7     14     14	    410    268     44     44      4      0     56      0      0      0      0      0      0      0      0      0      0      0     38      0      0      0      0      0      0     12      0      0      0      0      0      0     36      0      0      0      0      0      0      0      0      0      0      0      0     11      0      0      0      0      0      0      0      0      0      0      0      0      0      0      0      0      0      0      6
     12     13     10	    449    263     39     43      1      0      0      0      0      0      0      9      0      0      0     65      0    278      0      0      0    292      0      0      0    151      0      0      0      0      0      6    252      0      0      0      0    205      0      0      0      0      0      0      0      0      0      0      0      0    119      0    -32     -4      0      0      0    -49      0      0      0      0      0     92      0
      8     14     15	    452    194     10     44      1      0      0      0      0      0      0      0      0      0      0      0    252      0      0    235      0      0      0      0      0      0      0    -33      0      0      0      0      0      0      0      0      0      0      0      0      0      0      0      0     37      0      0      0      0      1      0      0    161    333      0      0      0      0      0      0      0      0      0      0      0
     10     12     12	    245    160     36     42      4      0      0      0      0     24      0      0      0      0      0      0      0      0    142      0      0      0     12    151      0      0      0      0    134      0      0      0      0    131    139      0      0      0      0    105      0      0      0      0      0      0      0      0      6      0     64    138      0      0     85      0      0      0      0      0      0      0      0      0      0
      7     10     13	    160     63     25     44     10      0      0      0      0      0      0      0      0      0     74     10      0      0      0      0      0     74      0      0      0      0      0      0      0     27      0      0      0      0      0      0     -1      0      0      0      0      0      0      0      0     60      0     79      0      0      0      0     55      0      0      0      0      0      9    -19    -18      0      0      0      0
      9     10     11	    467    209     44     44      1      0      0     12      0      0      0      0      0      0      0      0      0      0      0      0      0      0      0      0    -33      0      0      0     79    171      0      0     79      0      0      0      0      0      0     18      0      0      0    317      0      0    157      0      0      0      0      0      0     67      0    148      0      0      0      0      0      0      0      4      0
      9     10     11	    200     52     10     30     10      0      0      0     37      0      0     30      0      0      0      0     58      0      0      0      0      0      0      0      0    134      0     79      0      0      0      0     20      0     90    -28      0      0      0      0      0      0    106    120      0     -5      0     25      0      0      0      0      0      0      0    -18    127      0      0      0    110      0      0      0      0
     11     12     11	    222    141     17     39      8      0      0    -25      0      0      0      0      0      0      0      0      0      0      0      7      0    -26      0      0      0      0     27    171      0      0     50      0     77      0     64    104      0    162      0      0      0     23      0    -28      0      0    112     79      0      0    121      0      0      0      0     59     14      0      0      0      0    140      0      0     82
     11     15     15	    387    134     17     42      5      0      0     71      0      0      0      0    114    123      0    189    216      8      0      0      0      0      0      0      0      0      0      0      0     50      0      0    263      0    138      0      0      0      0      0     61      0    302      0      0      0      0      0      7      0      0      0      0      0      0      0      0      0      0    304      0    150      0      0     53
     12     12     13	    181    111     27     41     10      0     69      0      0      0      0      0    -10      0      0      0      0      0     39      0      0     24      0      6      0      0      0      0      0      0      0      0      0      0      0      0      0      0      0      0      0     89      0      0      0      0      0      0      0      0      0     -9     24      0      0      0      0      0      0    -26      0      0      0     67      0
     12     13     11	    375    204     43     43      7    177      0      0      0      0      0      0    251      0      0      0      0      0      0      0      0      0     36    252      0      0      0     79     20     77    263      0      0    217      0    137      0      0      0      0      0      0     13      0    131     73      0      0     35      0     20      0      0      0      0      0     54      0      0    -65      0      0      0      0     68
     10     10     13	    442    266     40     43      7      0      0      0      0      0    131    -11    157      0      0    178    111      0    -14      0      0    196      0      0      0    131      0      0      0      0      0      0    217      0      0      0      0      0      0      0      0      0      0      0      0      0      0      0      0      0      0      0      0      0      0      0      0     31      0    116      0      0      0      0      0
      7     11     14	    214     55     15     33     10     15      0    115      0      0    170     58      0      0      0      0      0      0      0      0      0      0      0      0      0    139      0      0     90     64    138      0      0      0      0      0      0      0      0    -20     63      0      0      0      0      0      0      0      0      0     52      0      0      0      0      0      0      0     35      0      0      0     58     28      0
      7     14     11	    378    171     39     41      6     62     91      0      0     34      0     50      0      0      0      0      0    -61     27      0      0      0      0      0      0      0      0      0    -28    104      0      0    137      0      0      0      0      0      0      0     67      0      0      0      0      0     51      0      0      0     44      0      0      0     49      0      0    115      0      0     13      0      0      0      0
      9     10     11	    248    155     28     44      9      0      0    -13      0      0    147      0      0      0      0      0      0      0      0      0      0      0      0      0      0      0     -1      0      0      0      0      0      0      0      0      0      0      0      0     61      0      0      0      0      0      0      0      0     79      0      0      0      0      0      0      0     77      0      0      0      0      0      0    155      0
      9     13     14	    307    196     40     44     10      0     -5      0      0      0      0      0      0    106      0      0      0      0      0      0      0      0      0    205      0      0      0      0      0    162      0      0      0      0      0      0      0      0    180    -26      0      0      0      0      0      0      0      0     51      0      0     35      0     74      0      0      0      0      0    179    138      0      0      0      0
     10     12     15	    311     87     35     40      9      0      0      0     54      0      0      0      0      0      0      0      0      0      0      0      0      0      0      0      0      0      0      0      0      0      0      0      0      0      0      0      0    180      0     42     82      0      0      0    141     35      0      0      0      0     49      0      0      0      0      0     63      0      0      0      0      0      0      0      0
     10     11     12	    138     79     27     36      3      0      0      0     35      0      2      0      0      0      0      0     49     84      0      0     19      0      0      0      0    105      0     18      0      0      0      0      0      0    -20      0     61    -26     42      0      0     39      0      0      0      0      0      0     76      0      0      0      0      0      0      0      0      0      0      0      0      0      0      0      0
      9     15     11	    111     55     32     34      1      0      0      0      0     44      0      0      0     38      0     49      0      0      0      0      0      0      0      0      0      0      0      0      0      0     61      0      0      0     63     67      0      0     82      0      0      0      0      0      0     86      0      0      0      0     -7      0      0      0      0      0     64      0      0     21      0      0      0      0    -10
     12     13     12	    332    147     44     44      5      0      0     87      0    146      0      0      0    174      0     72      0      0      0    176    252      0      0      0      0      0      0      0      0     23      0     89      0      0      0      0      0      0      0     39      0      0      0      0      0      0      0      0      0      0      0    108      0      0      0    232      0      0      0      0      0     17      0    148      0
      8     15     15	    402     62     10     39      3      0    -20      0      0      0      0      0    -72      0    154      0      0     64      0      0      0      0      0      0      0      0      0      0    106      0    302      0     13      0      0      0      0      0      0      0      0      0      0    -40      0      0    -39    251    -15      0     13      0      0      0      0      0      0      0      0      0      0      0      0      0     54
      7     12     15	    450    284     19     19      5    -14      0     37      0      0      0     71      0      0      0      0      0      0      0      0    134      0      0      0      0      0      0    317    120    -28      0      0      0      0      0      0      0      0      0      0      0      0    -40      0      0      0      0      0     44      0      0      0      0     94    261      0      0      0      0    264      0      0      0      0      0
      8     12     12	    451    119     27     32      9      0      0      0      0    -54      0      0      0      0      0      0      0     24      0      0    231      0      0      0     37      0      0      0      0      0      0      0    131      0      0      0      0      0    141      0      0      0      0      0      0    124      0      0     20      2      0      0      0      0      0      0      0      0      0      0      0     79      0      0      0
      6     10     12	    307     65      9     16      1    129      0      0      0      0      0     53      0     67      0      0      0      0     76      0      0      0     11      0      0      0     60      0     -5      0      0      0     73      0      0      0      0      0     35      0     86      0      0      0    124      0      0      0      0    110      0      0      0      0      0     20      0      0      0      0      0      0      0    114      0
     12     14     13	    206    137     20     23      2      0      0      0     43    145     68      0      0    -12      0    119      0      0      0      0      0     65      0      0      0      0      0    157      0    112      0      0      0      0      0     51      0      0      0      0      0      0    -39      0      0      0      0      0      0     93    100      0      0      0      0    -22      0      0      0      0      0      0      0      0      0
     12     15     10	    369    124     18     35      2      0      0      0     50      0      0      0      0      0      0      0      0      0     88    195      0      0      0      0      0      0     79      0     25     79      0      0      0      0      0      0      0      0      0      0      0      0    251      0      0      0      0      0      0      0     -2      0      0      0      0      0      0      0      0    229      0      0      0      0      0
      6     14     15	    106     64     38     44      5     36      0     74      0      0     56      0     34      0      0      0      0      0      0      0      0      0      0      0      0      6      0      0      0      0      7      0     35      0      0      0     79     51      0     76      0      0    -15     44     20      0      0      0      0      0      0      0      0     84      0    -20      0      0      0      0      0    -16      0      0     23
      6     10     14	    140     69     33     44      6      0      0      0      0      0      0      0      0      0      0      0      0      0      0      0      0      0      0      0      1      0      0      0      0      0      0      0      0      0      0      0      0      0      0      0      0      0      0      0      2    110     93      0      0      0      0      0      0      0      0      0    112     65      0     24      0      0    -17      0      0
      7     11     12	    179     57     36     43      5      0      0     85      0      0      0      0      0      0      0      0      0      0      0      0      0    135      0    119      0     64      0      0      0    121      0      0     20      0     52     44      0      0     49      0     -7      0     13      0      0      0    100     -2      0      0      0      0      0      0      0      0     27      0      0    -13      0      2      0      0      0
      7     13     12	    327     60     15     30      6    -55      0    234      0      0      0      0      0      0      0      0      0      0     15      0      0    140      0      0      0    138      0      0      0      0      0     -9      0      0      0      0      0     35      0      0      0    108      0      0      0      0      0      0      0      0      0      0      0      0      0      0      0      0     32      0      0     88      0      0     82
      7     15     11	    424    141     17     37      4      0     21      0      0      0      0      1    304      0      0      0      0      0      0      0      0      0      0    -32    161      0     55      0      0      0      0     24      0      0      0      0      0      0      0      0      0      0      0      0      0      0      0      0      0      0      0      0      0      0      0      0    188      0      0      0      0      0     49      0      0
     10     11     15	    424    237     22     44      3      0      0      0     78      0      0      7      0      0      0      0      0      0      0    246      0      0      0     -4    333      0      0     67      0      0      0      0      0      0      0      0      0     74      0      0      0      0      0     94      0      0      0      0     84      0      0      0      0      0    167      0      0      0      0      0      0      0      0      0      0
      7     10     11	    339     98     36     40      9    201     95      0      0      0     91      0    205      0      0      0      0      0      0    198      0      0      0      0      0     85      0      0      0      0      0      0      0      0      0     49      0      0      0      0      0      0      0    261      0      0      0      0      0      0      0      0      0    167      0      0      0      0      0      0      0      0     29      0     -5
      8     10     12	    429    289     16     22      7      0      0      0     -6    193      0      0      0    265      9      0      0      0      0    -17      0      0      0      0      0      0      0    148    -18     59      0      0      0      0      0      0      0      0      0      0      0    232      0      0      0     20    -22      0    -20      0      0      0      0      0      0      0      0      0      0      0      0      0      0      0      0
      8     13     10	    370    243     36     40      5      0      0      0      0      0     89      0      0      0      0      0      0      0      0      0    222      0      0      0      0      0      0      0    127     14      0      0     54      0      0      0     77      0     63      0     64      0      0      0      0      0      0      0      0    112     27      0    188      0      0      0      0      0      0      0      0      0      0      0      0
     12     15     13	    408    175     25     39     10      0      0      0      0      0      0      0      0      0      0    110      0    -53      0      0     29      0      0    -49      0      0      0      0      0      0      0      0      0     31      0    115      0      0      0      0      0      0      0      0      0      0      0      0      0     65      0      0      0      0      0      0      0      0     97    -46      0      0      0      0      0
     12     13     15	    153     95     19     23      9      0      0      0      0      0      0      0      0    114      0      0      0     54      0      0      0      0      0      0      0      0      9      0      0      0      0      0      0      0     35      0      0      0      0      0      0      0      0      0      0      0      0      0      0      0      0     32      0      0      0      0      0     97      0      0      0      0      0      0      0
      8     14     14	    386    180     39     41      8      0     88      0      0      0      0      0      0      0      0      0      0     80      0      0    214      0      0      0      0      0    -19      0      0      0    304    -26    -65    116      0      0      0    179      0      0     21      0      0    264      0      0      0    229      0     24    -13      0      0      0      0      0      0    -46      0      0      0      0      0      0     18
     12     13     12	    203     69     33     36      4     61      0      0      0      0      0      0      0      0      0      0     62      0      0      0      0     64      0      0      0      0    -18      0    110      0      0      0      0      0      0     13      0    138      0      0      0      0      0      0      0      0      0      0      0      0      0      0      0      0      0      0      0      0      0      0      0     -3      0     29      0
      6     15     15	    360     80     42     42      8     -8      0      0      0      0      0      0      0     18      0      0    184      0     -2      0      0      0      0      0      0      0      0      0      0    140    150      0      0      0      0      0      0      0      0      0      0     17      0      0     79      0      0      0    -16      0      2     88      0      0      0      0      0      0      0      0     -3      0      0      0      0
      8     14     10	    138     51     29     41      3     84     18      0      0      0      0      0      0    -16     91      0      0      0     54      0      0      0      0      0      0      0      0      0      0      0      0      0      0      0     58      0      0      0      0      0      0      0      0      0      0      0      0      0      0    -17      0      0     49      0     29      0      0      0      0      0      0      0      0      0      0
     11     14     12	    290     64     38     38      6      0      0      0     68      0     66      0      0      0      0      0      0      0      0      0      0      0      0     92      0      0      0      4      0      0      0     67      0      0     28      0    155      0      0      0      0    148      0      0      0    114      0      0      0      0      0      0      0      0      0      0      0      0      0      0     29      0      0      0     33
     10     11     10	    103     66     43     43      5      0      0      0      0     58      0      0      0      0      0      0     75      0     49      0      0      0      6      0      0      0      0      0      0     82     53      0     68      0      0      0      0      0      0      0    -10      0     54      0      0      0      0      0     23      0      0     82      0      0     -5      0      0      0      0     18      0      0      0     33      0